\ Model StainlessSteelProduction
\ LP format - for model browsing. Use MPS format to capture full model detail.
Minimize
  5 X[0,0] + 5 X[0,1] + 5 X[0,2] + 5 X[0,3] + 5 X[0,4] + 5 X[0,5] + 5 X[0,6]
   + 5 X[0,7] + 5 X[0,8] + 5 X[0,9] + 5 X[0,10] + 5 X[0,11] + 10 X[1,0]
   + 10 X[1,1] + 10 X[1,2] + 10 X[1,3] + 10 X[1,4] + 10 X[1,5] + 10 X[1,6]
   + 10 X[1,7] + 10 X[1,8] + 10 X[1,9] + 10 X[1,10] + 10 X[1,11] + 9 X[2,0]
   + 9 X[2,1] + 9 X[2,2] + 9 X[2,3] + 9 X[2,4] + 9 X[2,5] + 9 X[2,6]
   + 9 X[2,7] + 9 X[2,8] + 9 X[2,9] + 9 X[2,10] + 9 X[2,11] + 7 X[3,0]
   + 7 X[3,1] + 7 X[3,2] + 7 X[3,3] + 7 X[3,4] + 7 X[3,5] + 7 X[3,6]
   + 7 X[3,7] + 7 X[3,8] + 7 X[3,9] + 7 X[3,10] + 7 X[3,11] + 8.5 X[4,0]
   + 8.5 X[4,1] + 8.5 X[4,2] + 8.5 X[4,3] + 8.5 X[4,4] + 8.5 X[4,5]
   + 8.5 X[4,6] + 8.5 X[4,7] + 8.5 X[4,8] + 8.5 X[4,9] + 8.5 X[4,10]
   + 8.5 X[4,11] + 20 S[0,0] + 20 S[0,1] + 20 S[0,2] + 20 S[0,3]
   + 20 S[0,4] + 20 S[0,5] + 20 S[0,6] + 20 S[0,7] + 20 S[0,8] + 20 S[0,9]
   + 20 S[0,10] + 20 S[0,11] + 10 S[1,0] + 10 S[1,1] + 10 S[1,2]
   + 10 S[1,3] + 10 S[1,4] + 10 S[1,5] + 10 S[1,6] + 10 S[1,7] + 10 S[1,8]
   + 10 S[1,9] + 10 S[1,10] + 10 S[1,11] + 5 S[2,0] + 5 S[2,1] + 5 S[2,2]
   + 5 S[2,3] + 5 S[2,4] + 5 S[2,5] + 5 S[2,6] + 5 S[2,7] + 5 S[2,8]
   + 5 S[2,9] + 5 S[2,10] + 5 S[2,11]
Subject To
 con1[0]-: X[0,0] <= 90
 con1[0]-: X[0,1] <= 90
 con1[0]-: X[0,2] <= 90
 con1[0]-: X[0,3] <= 90
 con1[0]-: X[0,4] <= 90
 con1[0]-: X[0,5] <= 90
 con1[0]-: X[0,6] <= 90
 con1[0]-: X[0,7] <= 90
 con1[0]-: X[0,8] <= 90
 con1[0]-: X[0,9] <= 90
 con1[0]-: X[0,10] <= 90
 con1[0]-: X[0,11] <= 90
 con1[1]-: X[1,0] <= 30
 con1[1]-: X[1,1] <= 30
 con1[1]-: X[1,2] <= 30
 con1[1]-: X[1,3] <= 30
 con1[1]-: X[1,4] <= 30
 con1[1]-: X[1,5] <= 30
 con1[1]-: X[1,6] <= 30
 con1[1]-: X[1,7] <= 30
 con1[1]-: X[1,8] <= 30
 con1[1]-: X[1,9] <= 30
 con1[1]-: X[1,10] <= 30
 con1[1]-: X[1,11] <= 30
 con1[2]-: X[2,0] <= 50
 con1[2]-: X[2,1] <= 50
 con1[2]-: X[2,2] <= 50
 con1[2]-: X[2,3] <= 50
 con1[2]-: X[2,4] <= 50
 con1[2]-: X[2,5] <= 50
 con1[2]-: X[2,6] <= 50
 con1[2]-: X[2,7] <= 50
 con1[2]-: X[2,8] <= 50
 con1[2]-: X[2,9] <= 50
 con1[2]-: X[2,10] <= 50
 con1[2]-: X[2,11] <= 50
 con1[3]-: X[3,0] <= 70
 con1[3]-: X[3,1] <= 70
 con1[3]-: X[3,2] <= 70
 con1[3]-: X[3,3] <= 70
 con1[3]-: X[3,4] <= 70
 con1[3]-: X[3,5] <= 70
 con1[3]-: X[3,6] <= 70
 con1[3]-: X[3,7] <= 70
 con1[3]-: X[3,8] <= 70
 con1[3]-: X[3,9] <= 70
 con1[3]-: X[3,10] <= 70
 con1[3]-: X[3,11] <= 70
 con1[4]-: X[4,0] <= 20
 con1[4]-: X[4,1] <= 20
 con1[4]-: X[4,2] <= 20
 con1[4]-: X[4,3] <= 20
 con1[4]-: X[4,4] <= 20
 con1[4]-: X[4,5] <= 20
 con1[4]-: X[4,6] <= 20
 con1[4]-: X[4,7] <= 20
 con1[4]-: X[4,8] <= 20
 con1[4]-: X[4,9] <= 20
 con1[4]-: X[4,10] <= 20
 con1[4]-: X[4,11] <= 20
 con2[0,0]-: - S[0,0] + P[0,0] = 25
 con2[0,1]-: S[0,0] - S[0,1] + P[0,1] = 25
 con2[0,2]-: S[0,1] - S[0,2] + P[0,2] = 0
 con2[0,3]-: S[0,2] - S[0,3] + P[0,3] = 0
 con2[0,4]-: S[0,3] - S[0,4] + P[0,4] = 0
 con2[0,5]-: S[0,4] - S[0,5] + P[0,5] = 50
 con2[0,6]-: S[0,5] - S[0,6] + P[0,6] = 12
 con2[0,7]-: S[0,6] - S[0,7] + P[0,7] = 0
 con2[0,8]-: S[0,7] - S[0,8] + P[0,8] = 10
 con2[0,9]-: S[0,8] - S[0,9] + P[0,9] = 10
 con2[0,10]-: S[0,9] - S[0,10] + P[0,10] = 45
 con2[0,11]-: S[0,10] - S[0,11] + P[0,11] = 99
 con2[1,0]-: - S[1,0] + P[1,0] = 10
 con2[1,1]-: S[1,0] - S[1,1] + P[1,1] = 10
 con2[1,2]-: S[1,1] - S[1,2] + P[1,2] = 10
 con2[1,3]-: S[1,2] - S[1,3] + P[1,3] = 10
 con2[1,4]-: S[1,3] - S[1,4] + P[1,4] = 10
 con2[1,5]-: S[1,4] - S[1,5] + P[1,5] = 10
 con2[1,6]-: S[1,5] - S[1,6] + P[1,6] = 10
 con2[1,7]-: S[1,6] - S[1,7] + P[1,7] = 10
 con2[1,8]-: S[1,7] - S[1,8] + P[1,8] = 10
 con2[1,9]-: S[1,8] - S[1,9] + P[1,9] = 10
 con2[1,10]-: S[1,9] - S[1,10] + P[1,10] = 10
 con2[1,11]-: S[1,10] - S[1,11] + P[1,11] = 10
 con2[2,0]-: - S[2,0] + P[2,0] = 5
 con2[2,1]-: S[2,0] - S[2,1] + P[2,1] = 20
 con2[2,2]-: S[2,1] - S[2,2] + P[2,2] = 80
 con2[2,3]-: S[2,2] - S[2,3] + P[2,3] = 25
 con2[2,4]-: S[2,3] - S[2,4] + P[2,4] = 50
 con2[2,5]-: S[2,4] - S[2,5] + P[2,5] = 125
 con2[2,6]-: S[2,5] - S[2,6] + P[2,6] = 150
 con2[2,7]-: S[2,6] - S[2,7] + P[2,7] = 80
 con2[2,8]-: S[2,7] - S[2,8] + P[2,8] = 40
 con2[2,9]-: S[2,8] - S[2,9] + P[2,9] = 35
 con2[2,10]-: S[2,9] - S[2,10] + P[2,10] = 3
 con2[2,11]-: S[2,10] - S[2,11] + P[2,11] = 100
 con3[0]-: P[0,0] + P[1,0] + P[2,0] <= 100
 con3[1]-: P[0,1] + P[1,1] + P[2,1] <= 100
 con3[2]-: P[0,2] + P[1,2] + P[2,2] <= 100
 con3[3]-: P[0,3] + P[1,3] + P[2,3] <= 100
 con3[4]-: P[0,4] + P[1,4] + P[2,4] <= 100
 con3[5]-: P[0,5] + P[1,5] + P[2,5] <= 100
 con3[6]-: P[0,6] + P[1,6] + P[2,6] <= 100
 con3[7]-: P[0,7] + P[1,7] + P[2,7] <= 100
 con3[8]-: P[0,8] + P[1,8] + P[2,8] <= 100
 con3[9]-: P[0,9] + P[1,9] + P[2,9] <= 100
 con3[10]-: P[0,10] + P[1,10] + P[2,10] <= 100
 con3[11]-: P[0,11] + P[1,11] + P[2,11] <= 100
 con4[0]-: - 15 X[1,0] - 10 X[2,0] - 16 X[3,0] - 10 X[4,0] = 0
 con4[1]-: - 15 X[1,1] - 10 X[2,1] - 16 X[3,1] - 10 X[4,1] = 0
 con4[2]-: - 15 X[1,2] - 10 X[2,2] - 16 X[3,2] - 10 X[4,2] = 0
 con4[3]-: - 15 X[1,3] - 10 X[2,3] - 16 X[3,3] - 10 X[4,3] = 0
 con4[4]-: - 15 X[1,4] - 10 X[2,4] - 16 X[3,4] - 10 X[4,4] = 0
 con4[5]-: - 15 X[1,5] - 10 X[2,5] - 16 X[3,5] - 10 X[4,5] = 0
 con4[6]-: - 15 X[1,6] - 10 X[2,6] - 16 X[3,6] - 10 X[4,6] = 0
 con4[7]-: - 15 X[1,7] - 10 X[2,7] - 16 X[3,7] - 10 X[4,7] = 0
 con4[8]-: - 15 X[1,8] - 10 X[2,8] - 16 X[3,8] - 10 X[4,8] = 0
 con4[9]-: - 15 X[1,9] - 10 X[2,9] - 16 X[3,9] - 10 X[4,9] = 0
 con4[10]-: - 15 X[1,10] - 10 X[2,10] - 16 X[3,10] - 10 X[4,10] = 0
 con4[11]-: - 15 X[1,11] - 10 X[2,11] - 16 X[3,11] - 10 X[4,11] = 0
 con4[0]-: - 15 X[1,0] - 10 X[2,0] - 16 X[3,0] - 10 X[4,0] + 15 P[1,0] = 0
 con4[1]-: - 15 X[1,1] - 10 X[2,1] - 16 X[3,1] - 10 X[4,1] + 15 P[1,1] = 0
 con4[2]-: - 15 X[1,2] - 10 X[2,2] - 16 X[3,2] - 10 X[4,2] + 15 P[1,2] = 0
 con4[3]-: - 15 X[1,3] - 10 X[2,3] - 16 X[3,3] - 10 X[4,3] + 15 P[1,3] = 0
 con4[4]-: - 15 X[1,4] - 10 X[2,4] - 16 X[3,4] - 10 X[4,4] + 15 P[1,4] = 0
 con4[5]-: - 15 X[1,5] - 10 X[2,5] - 16 X[3,5] - 10 X[4,5] + 15 P[1,5] = 0
 con4[6]-: - 15 X[1,6] - 10 X[2,6] - 16 X[3,6] - 10 X[4,6] + 15 P[1,6] = 0
 con4[7]-: - 15 X[1,7] - 10 X[2,7] - 16 X[3,7] - 10 X[4,7] + 15 P[1,7] = 0
 con4[8]-: - 15 X[1,8] - 10 X[2,8] - 16 X[3,8] - 10 X[4,8] + 15 P[1,8] = 0
 con4[9]-: - 15 X[1,9] - 10 X[2,9] - 16 X[3,9] - 10 X[4,9] + 15 P[1,9] = 0
 con4[10]-: - 15 X[1,10] - 10 X[2,10] - 16 X[3,10] - 10 X[4,10]
   + 15 P[1,10] = 0
 con4[11]-: - 15 X[1,11] - 10 X[2,11] - 16 X[3,11] - 10 X[4,11]
   + 15 P[1,11] = 0
 con4[0]-: - 15 X[1,0] - 10 X[2,0] - 16 X[3,0] - 10 X[4,0] + 10 P[2,0] = 0
 con4[1]-: - 15 X[1,1] - 10 X[2,1] - 16 X[3,1] - 10 X[4,1] + 10 P[2,1] = 0
 con4[2]-: - 15 X[1,2] - 10 X[2,2] - 16 X[3,2] - 10 X[4,2] + 10 P[2,2] = 0
 con4[3]-: - 15 X[1,3] - 10 X[2,3] - 16 X[3,3] - 10 X[4,3] + 10 P[2,3] = 0
 con4[4]-: - 15 X[1,4] - 10 X[2,4] - 16 X[3,4] - 10 X[4,4] + 10 P[2,4] = 0
 con4[5]-: - 15 X[1,5] - 10 X[2,5] - 16 X[3,5] - 10 X[4,5] + 10 P[2,5] = 0
 con4[6]-: - 15 X[1,6] - 10 X[2,6] - 16 X[3,6] - 10 X[4,6] + 10 P[2,6] = 0
 con4[7]-: - 15 X[1,7] - 10 X[2,7] - 16 X[3,7] - 10 X[4,7] + 10 P[2,7] = 0
 con4[8]-: - 15 X[1,8] - 10 X[2,8] - 16 X[3,8] - 10 X[4,8] + 10 P[2,8] = 0
 con4[9]-: - 15 X[1,9] - 10 X[2,9] - 16 X[3,9] - 10 X[4,9] + 10 P[2,9] = 0
 con4[10]-: - 15 X[1,10] - 10 X[2,10] - 16 X[3,10] - 10 X[4,10]
   + 10 P[2,10] = 0
 con4[11]-: - 15 X[1,11] - 10 X[2,11] - 16 X[3,11] - 10 X[4,11]
   + 10 P[2,11] = 0
 con5[0]-: - 18 X[0,0] - 25 X[1,0] - 15 X[2,0] - 14 X[3,0] + 18 P[0,0] = 0
 con5[1]-: - 18 X[0,1] - 25 X[1,1] - 15 X[2,1] - 14 X[3,1] + 18 P[0,1] = 0
 con5[2]-: - 18 X[0,2] - 25 X[1,2] - 15 X[2,2] - 14 X[3,2] + 18 P[0,2] = 0
 con5[3]-: - 18 X[0,3] - 25 X[1,3] - 15 X[2,3] - 14 X[3,3] + 18 P[0,3] = 0
 con5[4]-: - 18 X[0,4] - 25 X[1,4] - 15 X[2,4] - 14 X[3,4] + 18 P[0,4] = 0
 con5[5]-: - 18 X[0,5] - 25 X[1,5] - 15 X[2,5] - 14 X[3,5] + 18 P[0,5] = 0
 con5[6]-: - 18 X[0,6] - 25 X[1,6] - 15 X[2,6] - 14 X[3,6] + 18 P[0,6] = 0
 con5[7]-: - 18 X[0,7] - 25 X[1,7] - 15 X[2,7] - 14 X[3,7] + 18 P[0,7] = 0
 con5[8]-: - 18 X[0,8] - 25 X[1,8] - 15 X[2,8] - 14 X[3,8] + 18 P[0,8] = 0
 con5[9]-: - 18 X[0,9] - 25 X[1,9] - 15 X[2,9] - 14 X[3,9] + 18 P[0,9] = 0
 con5[10]-: - 18 X[0,10] - 25 X[1,10] - 15 X[2,10] - 14 X[3,10]
   + 18 P[0,10] = 0
 con5[11]-: - 18 X[0,11] - 25 X[1,11] - 15 X[2,11] - 14 X[3,11]
   + 18 P[0,11] = 0
 con5[0]-: - 18 X[0,0] - 25 X[1,0] - 15 X[2,0] - 14 X[3,0] + 25 P[1,0] = 0
 con5[1]-: - 18 X[0,1] - 25 X[1,1] - 15 X[2,1] - 14 X[3,1] + 25 P[1,1] = 0
 con5[2]-: - 18 X[0,2] - 25 X[1,2] - 15 X[2,2] - 14 X[3,2] + 25 P[1,2] = 0
 con5[3]-: - 18 X[0,3] - 25 X[1,3] - 15 X[2,3] - 14 X[3,3] + 25 P[1,3] = 0
 con5[4]-: - 18 X[0,4] - 25 X[1,4] - 15 X[2,4] - 14 X[3,4] + 25 P[1,4] = 0
 con5[5]-: - 18 X[0,5] - 25 X[1,5] - 15 X[2,5] - 14 X[3,5] + 25 P[1,5] = 0
 con5[6]-: - 18 X[0,6] - 25 X[1,6] - 15 X[2,6] - 14 X[3,6] + 25 P[1,6] = 0
 con5[7]-: - 18 X[0,7] - 25 X[1,7] - 15 X[2,7] - 14 X[3,7] + 25 P[1,7] = 0
 con5[8]-: - 18 X[0,8] - 25 X[1,8] - 15 X[2,8] - 14 X[3,8] + 25 P[1,8] = 0
 con5[9]-: - 18 X[0,9] - 25 X[1,9] - 15 X[2,9] - 14 X[3,9] + 25 P[1,9] = 0
 con5[10]-: - 18 X[0,10] - 25 X[1,10] - 15 X[2,10] - 14 X[3,10]
   + 25 P[1,10] = 0
 con5[11]-: - 18 X[0,11] - 25 X[1,11] - 15 X[2,11] - 14 X[3,11]
   + 25 P[1,11] = 0
 con5[0]-: - 18 X[0,0] - 25 X[1,0] - 15 X[2,0] - 14 X[3,0] + 15 P[2,0] = 0
 con5[1]-: - 18 X[0,1] - 25 X[1,1] - 15 X[2,1] - 14 X[3,1] + 15 P[2,1] = 0
 con5[2]-: - 18 X[0,2] - 25 X[1,2] - 15 X[2,2] - 14 X[3,2] + 15 P[2,2] = 0
 con5[3]-: - 18 X[0,3] - 25 X[1,3] - 15 X[2,3] - 14 X[3,3] + 15 P[2,3] = 0
 con5[4]-: - 18 X[0,4] - 25 X[1,4] - 15 X[2,4] - 14 X[3,4] + 15 P[2,4] = 0
 con5[5]-: - 18 X[0,5] - 25 X[1,5] - 15 X[2,5] - 14 X[3,5] + 15 P[2,5] = 0
 con5[6]-: - 18 X[0,6] - 25 X[1,6] - 15 X[2,6] - 14 X[3,6] + 15 P[2,6] = 0
 con5[7]-: - 18 X[0,7] - 25 X[1,7] - 15 X[2,7] - 14 X[3,7] + 15 P[2,7] = 0
 con5[8]-: - 18 X[0,8] - 25 X[1,8] - 15 X[2,8] - 14 X[3,8] + 15 P[2,8] = 0
 con5[9]-: - 18 X[0,9] - 25 X[1,9] - 15 X[2,9] - 14 X[3,9] + 15 P[2,9] = 0
 con5[10]-: - 18 X[0,10] - 25 X[1,10] - 15 X[2,10] - 14 X[3,10]
   + 15 P[2,10] = 0
 con5[11]-: - 18 X[0,11] - 25 X[1,11] - 15 X[2,11] - 14 X[3,11]
   + 15 P[2,11] = 0
 con7[0]-: X[0,0] >= 0
 con7[0]-: X[0,1] >= 0
 con7[0]-: X[0,2] >= 0
 con7[0]-: X[0,3] >= 0
 con7[0]-: X[0,4] >= 0
 con7[0]-: X[0,5] >= 0
 con7[0]-: X[0,6] >= 0
 con7[0]-: X[0,7] >= 0
 con7[0]-: X[0,8] >= 0
 con7[0]-: X[0,9] >= 0
 con7[0]-: X[0,10] >= 0
 con7[0]-: X[0,11] >= 0
 con7[1]-: X[1,0] >= 0
 con7[1]-: X[1,1] >= 0
 con7[1]-: X[1,2] >= 0
 con7[1]-: X[1,3] >= 0
 con7[1]-: X[1,4] >= 0
 con7[1]-: X[1,5] >= 0
 con7[1]-: X[1,6] >= 0
 con7[1]-: X[1,7] >= 0
 con7[1]-: X[1,8] >= 0
 con7[1]-: X[1,9] >= 0
 con7[1]-: X[1,10] >= 0
 con7[1]-: X[1,11] >= 0
 con7[2]-: X[2,0] >= 0
 con7[2]-: X[2,1] >= 0
 con7[2]-: X[2,2] >= 0
 con7[2]-: X[2,3] >= 0
 con7[2]-: X[2,4] >= 0
 con7[2]-: X[2,5] >= 0
 con7[2]-: X[2,6] >= 0
 con7[2]-: X[2,7] >= 0
 con7[2]-: X[2,8] >= 0
 con7[2]-: X[2,9] >= 0
 con7[2]-: X[2,10] >= 0
 con7[2]-: X[2,11] >= 0
 con7[3]-: X[3,0] >= 0
 con7[3]-: X[3,1] >= 0
 con7[3]-: X[3,2] >= 0
 con7[3]-: X[3,3] >= 0
 con7[3]-: X[3,4] >= 0
 con7[3]-: X[3,5] >= 0
 con7[3]-: X[3,6] >= 0
 con7[3]-: X[3,7] >= 0
 con7[3]-: X[3,8] >= 0
 con7[3]-: X[3,9] >= 0
 con7[3]-: X[3,10] >= 0
 con7[3]-: X[3,11] >= 0
 con7[4]-: X[4,0] >= 0
 con7[4]-: X[4,1] >= 0
 con7[4]-: X[4,2] >= 0
 con7[4]-: X[4,3] >= 0
 con7[4]-: X[4,4] >= 0
 con7[4]-: X[4,5] >= 0
 con7[4]-: X[4,6] >= 0
 con7[4]-: X[4,7] >= 0
 con7[4]-: X[4,8] >= 0
 con7[4]-: X[4,9] >= 0
 con7[4]-: X[4,10] >= 0
 con7[4]-: X[4,11] >= 0
 con8[0]-: S[0,0] >= 0
 con8[0]-: S[0,1] >= 0
 con8[0]-: S[0,2] >= 0
 con8[0]-: S[0,3] >= 0
 con8[0]-: S[0,4] >= 0
 con8[0]-: S[0,5] >= 0
 con8[0]-: S[0,6] >= 0
 con8[0]-: S[0,7] >= 0
 con8[0]-: S[0,8] >= 0
 con8[0]-: S[0,9] >= 0
 con8[0]-: S[0,10] >= 0
 con8[0]-: S[0,11] >= 0
 con8[1]-: S[1,0] >= 0
 con8[1]-: S[1,1] >= 0
 con8[1]-: S[1,2] >= 0
 con8[1]-: S[1,3] >= 0
 con8[1]-: S[1,4] >= 0
 con8[1]-: S[1,5] >= 0
 con8[1]-: S[1,6] >= 0
 con8[1]-: S[1,7] >= 0
 con8[1]-: S[1,8] >= 0
 con8[1]-: S[1,9] >= 0
 con8[1]-: S[1,10] >= 0
 con8[1]-: S[1,11] >= 0
 con8[2]-: S[2,0] >= 0
 con8[2]-: S[2,1] >= 0
 con8[2]-: S[2,2] >= 0
 con8[2]-: S[2,3] >= 0
 con8[2]-: S[2,4] >= 0
 con8[2]-: S[2,5] >= 0
 con8[2]-: S[2,6] >= 0
 con8[2]-: S[2,7] >= 0
 con8[2]-: S[2,8] >= 0
 con8[2]-: S[2,9] >= 0
 con8[2]-: S[2,10] >= 0
 con8[2]-: S[2,11] >= 0
 con9[0]-: P[0,0] >= 0
 con9[0]-: P[0,1] >= 0
 con9[0]-: P[0,2] >= 0
 con9[0]-: P[0,3] >= 0
 con9[0]-: P[0,4] >= 0
 con9[0]-: P[0,5] >= 0
 con9[0]-: P[0,6] >= 0
 con9[0]-: P[0,7] >= 0
 con9[0]-: P[0,8] >= 0
 con9[0]-: P[0,9] >= 0
 con9[0]-: P[0,10] >= 0
 con9[0]-: P[0,11] >= 0
 con9[1]-: P[1,0] >= 0
 con9[1]-: P[1,1] >= 0
 con9[1]-: P[1,2] >= 0
 con9[1]-: P[1,3] >= 0
 con9[1]-: P[1,4] >= 0
 con9[1]-: P[1,5] >= 0
 con9[1]-: P[1,6] >= 0
 con9[1]-: P[1,7] >= 0
 con9[1]-: P[1,8] >= 0
 con9[1]-: P[1,9] >= 0
 con9[1]-: P[1,10] >= 0
 con9[1]-: P[1,11] >= 0
 con9[2]-: P[2,0] >= 0
 con9[2]-: P[2,1] >= 0
 con9[2]-: P[2,2] >= 0
 con9[2]-: P[2,3] >= 0
 con9[2]-: P[2,4] >= 0
 con9[2]-: P[2,5] >= 0
 con9[2]-: P[2,6] >= 0
 con9[2]-: P[2,7] >= 0
 con9[2]-: P[2,8] >= 0
 con9[2]-: P[2,9] >= 0
 con9[2]-: P[2,10] >= 0
 con9[2]-: P[2,11] >= 0
Bounds
End
